100 93330

 615 40
943 273
963 700
624 867
321 93
923 42
816 465
856 379
62 107
300 328
403 65
955 365
648 821
567 484
620 647
303 901
770 24
253 540
734 62
478 491
369 273
679 229
941 20
160 3
961 421
166 730
205 911
267 307
138 432
368 136
443 909
858 944
760 515
567 193
916 585
721 415
17 873
68 118
133 666
700 209
919 952
430 34
308 649
650 318
174 120
412 627
97 525
683 581
154 937
695 845
242 769
304 89
285 512
27 47
402 772
360 740
60 959
202 692
762 522
874 284
581 377
970 638
370 134
533 667
152 248
102 652
899 318
607 436
446 176
873 835
229 686
125 993
770 586
834 351
999 143
881 967
938 804
236 398
162 624
554 718
788 643
353 369
68 501
173 622
843 370
637 579
682 382
559 86
261 787
217 739
817 460
124 950
805 325
162 522
201 489
454 929
402 397
462 896
275 355
206 947
